8307
3, 17, 7, 2, 42, 30, 21, 31, 18, 22, 49, 36, 35, 34, 39, 40, 37, 38, 48, 24, 5, 15, 6, 4, 25, 12, 51, 11, 52, 14, 13, 47, 26, 27, 28, 46, 44, 16, 29, 50, 20, 23, 1, 32, 43, 33, 10, 9, 8, 41, 19, 45
